; benchmark generated from python API
(set-info :status unknown)
(declare-datatypes ((RealState 0)) (((RMk1 (rval1 Real)) (RMk2 (rval2 Real)))))
 (declare-fun xuscore2dollarskuscore53 () Real)
(declare-fun t31uscore0dollarskuscore2 () Real)
(declare-fun yuscore2dollarskuscore61 () Real)
(declare-fun stuscore2dollarskuscore61 () Real)
(assert
 (let (($x76 (exists ((ts31uscore2_st RealState) (val!60 Real) )(let ((?x73 (* 2.0 xuscore2dollarskuscore53)))
 (let (($x157 (>= (+ (* (- 2.0) t31uscore0dollarskuscore2) yuscore2dollarskuscore61) (- 5.0 (+ (* 2.0 t31uscore0dollarskuscore2) ?x73)))))
 (let (($x30 (<= yuscore2dollarskuscore61 (+ 10.0 xuscore2dollarskuscore53))))
 (let (($x147 (>= yuscore2dollarskuscore61 (- 5.0 ?x73))))
 (let (($x224 (<= yuscore2dollarskuscore61 12.0)))
 (let (($x207 (>= yuscore2dollarskuscore61 1.0)))
 (let (($x14 (= stuscore2dollarskuscore61 3.0)))
 (let (($x40 (< xuscore2dollarskuscore53 2.0)))
 (let (($x50 (>= t31uscore0dollarskuscore2 0.0)))
 (let (($x8 (<= (+ (rval2 ts31uscore2_st) xuscore2dollarskuscore53) 2.0)))
 (let (($x126 (and (<= 0.0 (rval2 ts31uscore2_st)) (<= (rval2 ts31uscore2_st) t31uscore0dollarskuscore2))))
 (let (($x204 (and (and (and (and (and (=> $x126 $x8) $x50) $x40) $x14) $x207) $x224)))
 (let (($x94 (not (= ts31uscore2_st (RMk1 val!60)))))
 (and $x94 (=> (and (and $x204 $x147) $x30) $x157))))))))))))))))
 ))
 (not $x76)))
(check-sat)
